% File represents an instance of a Composite Structure problem to be solved by a CP framework
% Created on 2025-03-25 14:06:10.318
T = 36;
n = 4;
m = 4;
edges = [(2, 1),
(4, 3),
(1, 3),
(2, 4)];
counts = [|4, 8, 4, 16,
|6, 8, 4, 18,
|2, 8, 4, 8,
|6, 8, 4, 10|];
